\* Problem: Unknown *\

Maximize
 obj: + xp_0_0 + xp_1_0 + xp_1_1 + xp_2_0 + xp_3_0 + xp_3_1 + xp_4_0
 + xp_5_0 + xp_6_0 + xp_7_0 + xp_8_0 + xp_9_0 + xp_9_1 + xp_10_0
 + xp_11_0 + xp_11_1 + xp_12_0 + xp_12_1 + xp_13_0 + xp_14_0 + xp_14_1
 + xp_15_0 + xp_16_0 + xp_17_0 + xp_17_1 + xp_18_0 + xp_18_1 + xp_19_0
 + xp_19_1 + xp_20_0 + xp_21_0 + xp_22_0 + xp_23_0 + xp_24_0 + xp_24_1
 + xp_25_0 + xp_26_0 + xp_27_0 + xp_28_0 + xp_28_1 + xp_29_0 + xp_30_0
 + xp_30_1 + xp_31_0 + xp_32_0 + xp_32_1 + xp_32_2 + xp_33_0 + xp_34_0
 + xp_34_1 + xp_35_0 + xp_36_0 + xp_37_0 + xp_38_0 + xp_39_0 + xp_40_0
 + xp_40_1 + xp_41_0 + xp_42_0 + xp_42_1 + xp_43_0 + xp_44_0 + xp_45_0
 + xp_46_0 + xp_47_0 + xp_48_0 + xp_48_1 + xp_49_0 + xp_50_0 + xp_50_1
 + xp_51_0 + xp_52_0 + xp_53_0 + xp_54_0 + xp_55_0 + xp_56_0 + xp_57_0
 + xp_58_0 + xp_58_1 + xp_59_0 + xp_60_0 + xp_60_1 + xp_61_0 + xp_61_1
 + xp_62_0 + xp_63_0 + xp_63_1 + xp_64_0 + xp_65_0 + xp_66_0 + xp_67_0
 + xp_68_0 + xp_68_1 + xp_69_0 + xp_70_0 + xp_71_0 + xp_72_0 + xp_73_0
 + xp_74_0 + xp_75_0 + xp_76_0 + xp_77_0 + xp_77_1 + xp_78_0 + xp_78_1
 + xp_78_2 + xp_79_0 + xp_79_1 + xp_79_2 + xp_80_0 + xp_80_1 + xp_81_0
 + xp_82_0 + xp_83_0 + xp_84_0 + xp_85_0 + xp_85_1 + xp_86_0 + xp_86_1
 + xp_87_0 + xp_88_0 + xp_89_0 + xp_90_0 + xp_90_1 + xp_90_2 + xp_91_0
 + xp_91_1 + xp_91_2 + xp_92_0 + xp_93_0 + xp_94_0 + xp_95_0 + xp_96_0
 + xp_97_0 + xp_98_0 + xp_98_1 + xp_99_0 + xp_100_0 + xp_101_0
 + xp_102_0 + xp_103_0 + xp_104_0 + xp_105_0 + xp_106_0 + xp_107_0
 + xp_108_0 + xp_108_1 + xp_108_2 + xp_109_0 + xp_109_1 + xp_110_0
 + xp_111_0 + xp_112_0 + xp_113_0 + xp_114_0 + xp_115_0 + xp_115_1
 + xp_116_0 + xp_116_1 + xp_117_0 + xp_118_0 + xp_119_0 + xp_120_0
 + xp_120_1 + xp_121_0 + xp_122_0 + xp_123_0 + xp_124_0 + xp_125_0
 + xp_126_0 + xp_126_1 + xp_126_2 + xp_126_3 + xp_127_0 + xp_127_1
 + xp_128_0 + xp_128_1 + xp_129_0 + xp_129_1 + xp_130_0 + xp_131_0
 + xp_131_1

Subject To
 r_1: + xp_128_1 + xp_122_0 + xp_121_0 + xp_108_1 + xp_107_0 + xp_78_2
 + xp_40_1 + xp_25_0 + xp_18_0 + xp_16_0 + xp_4_0 <= 39484.32760364
 r_2: + xp_131_1 + xp_127_1 + xp_126_1 + xp_120_1 + xp_120_0 + xp_93_0
 + xp_90_2 + xp_85_1 + xp_85_0 + xp_77_1 + xp_75_0 + xp_71_0 + xp_66_0
 + xp_65_0 + xp_61_1 + xp_55_0 + xp_52_0 + xp_48_1 + xp_48_0 + xp_42_1
 + xp_32_2 + xp_32_0 + xp_28_1 + xp_28_0 + xp_24_0 + xp_19_1 + xp_19_0
 + xp_12_1 + xp_1_1 <= 35760.391198044
 r_3: + xp_126_3 + xp_114_0 + xp_95_0 + xp_91_1 + xp_79_1 + xp_76_0
 + xp_34_0 <= 40000
 r_4: + xp_117_0 + xp_91_2 + xp_91_0 + xp_84_0 + xp_79_2 + xp_79_0
 + xp_46_0 + xp_43_0 + xp_40_1 + xp_40_0 + xp_34_1 <= 37866.6666666667
 r_5: + xp_130_0 + xp_99_0 + xp_86_0 + xp_7_0 + xp_2_0 <= 40000
 r_6: + xp_126_3 + xp_126_2 + xp_119_0 + xp_114_0 + xp_95_0 + xp_91_1
 + xp_83_0 + xp_81_0 + xp_79_1 + xp_70_0 + xp_68_1 + xp_58_1 + xp_53_0
 + xp_48_1 + xp_45_0 + xp_34_0 + xp_32_2 + xp_32_1 + xp_30_1 + xp_18_0
 <= 40000
 r_7: + xp_104_0 + xp_88_0 + xp_82_0 + xp_78_1 + xp_50_1 + xp_44_0
 + xp_27_0 + xp_18_1 + xp_3_1 <= 37866.6666666667
 r_8: + xp_131_1 + xp_127_1 + xp_126_1 + xp_120_1 + xp_120_0 + xp_118_0
 + xp_103_0 + xp_90_2 + xp_77_1 + xp_71_0 + xp_61_1 + xp_55_0 + xp_42_1
 + xp_32_2 + xp_32_0 + xp_24_0 + xp_12_1 + xp_1_1 <= 39484.32760364
 r_9: + xp_131_0 + xp_127_0 + xp_122_0 + xp_108_1 + xp_78_2 + xp_77_0
 + xp_42_0 + xp_33_0 + xp_32_1 + xp_24_1 <= 40000
 r_10: + xp_106_0 + xp_99_0 + xp_98_0 + xp_88_0 + xp_86_0 + xp_85_0
 + xp_78_1 + xp_50_1 + xp_26_0 + xp_24_0 + xp_8_0 + xp_7_0 + xp_3_1
 + xp_2_0 <= 40000
 r_11: + xp_119_0 + xp_112_0 + xp_111_0 + xp_95_0 + xp_91_1 + xp_81_0
 + xp_79_1 + xp_78_2 + xp_78_0 + xp_59_0 + xp_53_0 + xp_50_0 + xp_49_0
 + xp_45_0 + xp_34_0 + xp_18_0 + xp_4_0 + xp_3_0 <= 37263.8208537439
 r_12: + xp_129_0 + xp_128_0 + xp_123_0 + xp_117_0 + xp_108_2 + xp_101_0
 + xp_91_2 + xp_82_0 + xp_80_1 + xp_79_2 + xp_78_1 + xp_78_0 + xp_73_0
 + xp_63_1 + xp_60_0 + xp_50_1 + xp_46_0 + xp_44_0 + xp_40_0 + xp_18_1
 + xp_17_1 + xp_15_0 + xp_14_1 + xp_13_0 + xp_9_0 <= 36778.2691092862
 r_13: + xp_129_1 + xp_128_1 + xp_120_1 + xp_109_1 + xp_100_0 + xp_91_0
 + xp_90_0 + xp_80_0 + xp_79_0 + xp_68_0 + xp_63_0 + xp_60_1 + xp_40_1
 + xp_34_1 + xp_31_0 + xp_30_0 + xp_17_0 + xp_9_1 <= 37263.8208537439
 r_14: + xp_131_1 + xp_131_0 + xp_126_3 + xp_126_2 + xp_125_0 + xp_124_0
 + xp_115_1 + xp_115_0 + xp_98_1 + xp_94_0 + xp_86_1 + xp_85_1 + xp_77_1
 + xp_77_0 + xp_68_1 + xp_65_0 + xp_58_1 + xp_56_0 + xp_51_0 + xp_48_1
 + xp_41_0 + xp_38_0 + xp_35_0 + xp_32_2 + xp_32_1 + xp_30_1 + xp_24_1
 + xp_20_0 + xp_19_1 + xp_19_0 + xp_12_1 + xp_12_0 + xp_0_0
 <= 37866.6666666667
 r_15: + xp_131_1 + xp_131_0 + xp_126_3 + xp_126_2 + xp_125_0 + xp_124_0
 + xp_120_1 + xp_116_0 + xp_115_0 + xp_109_1 + xp_98_1 + xp_94_0
 + xp_90_0 + xp_89_0 + xp_86_1 + xp_85_1 + xp_77_1 + xp_77_0 + xp_68_1
 + xp_68_0 + xp_65_0 + xp_58_1 + xp_51_0 + xp_48_1 + xp_42_1 + xp_42_0
 + xp_38_0 + xp_36_0 + xp_32_2 + xp_32_1 + xp_28_1 + xp_24_1 + xp_19_1
 + xp_12_0 + xp_11_0 + xp_0_0 <= 36778.2691092862
 r_16: + xp_128_0 + xp_123_0 + xp_108_2 + xp_108_0 + xp_78_1 + xp_78_0
 + xp_73_0 + xp_67_0 + xp_57_0 + xp_46_0 + xp_44_0 + xp_40_0 + xp_22_0
 + xp_18_1 + xp_13_0 + xp_6_0 <= 36778.2691092862
 r_17: + xp_129_0 + xp_126_0 + xp_109_0 + xp_97_0 + xp_91_2 + xp_90_1
 + xp_80_1 + xp_79_2 + xp_63_1 + xp_62_0 + xp_61_0 + xp_60_0 + xp_47_0
 + xp_17_1 + xp_9_0 + xp_1_0 <= 35760.391198044
 r_18: + xp_126_1 + xp_126_0 + xp_106_0 + xp_99_0 + xp_98_0 + xp_92_0
 + xp_86_0 + xp_85_0 + xp_68_0 + xp_58_0 + xp_48_0 + xp_32_0 + xp_30_0
 + xp_26_0 + xp_24_0 + xp_5_0 + xp_2_0 <= 37263.8208537439
 r_19: + xp_116_1 + xp_115_1 + xp_110_0 + xp_108_2 + xp_78_0 + xp_56_0
 + xp_28_0 + xp_19_0 + xp_14_1 + xp_12_1 + xp_11_1 + xp_3_0
 <= 37263.8208537439
 r_20: + xp_129_1 + xp_128_1 + xp_119_0 + xp_112_0 + xp_111_0 + xp_108_1
 + xp_108_0 + xp_107_0 + xp_95_0 + xp_91_1 + xp_91_0 + xp_81_0 + xp_80_0
 + xp_79_1 + xp_79_0 + xp_78_2 + xp_69_0 + xp_64_0 + xp_63_0 + xp_60_1
 + xp_50_0 + xp_49_0 + xp_45_0 + xp_40_1 + xp_18_0 + xp_17_0 + xp_14_0
 + xp_10_0 + xp_9_1 + xp_4_0 <= 35760.391198044
 r_21: + xp_126_3 + xp_113_0 + xp_86_1 + xp_77_1 + xp_77_0 + xp_65_0
 + xp_38_0 + xp_20_0 + xp_0_0 <= 37866.6666666667
 r_22: + xp_126_2 + xp_124_0 + xp_105_0 + xp_98_1 + xp_94_0 + xp_85_1
 + xp_83_0 + xp_68_1 + xp_58_1 + xp_48_1 + xp_41_0 + xp_32_2 + xp_32_1
 + xp_30_1 + xp_24_1 <= 37866.6666666667
 r_23: + xp_128_1 + xp_128_0 + xp_117_0 + xp_104_0 + xp_100_0 + xp_91_2
 + xp_91_0 + xp_84_0 + xp_82_0 + xp_80_1 + xp_80_0 + xp_79_2 + xp_79_0
 + xp_78_1 + xp_73_0 + xp_60_1 + xp_60_0 + xp_50_1 + xp_46_0 + xp_44_0
 + xp_40_1 + xp_40_0 + xp_34_1 + xp_21_0 + xp_18_1 + xp_15_0 + xp_9_1
 + xp_9_0 + xp_3_1 <= 37866.6666666667
 r_24: + xp_128_0 + xp_126_1 + xp_103_0 + xp_90_2 + xp_61_1 + xp_40_0
 + xp_39_0 + xp_22_0 + xp_18_1 + xp_13_0 + xp_12_1 + xp_1_1 <= 40000
 r_25: + xp_131_0 + xp_127_0 + xp_126_3 + xp_126_2 + xp_126_0 + xp_94_0
 + xp_90_1 + xp_90_0 + xp_89_0 + xp_77_0 + xp_74_0 + xp_61_0 + xp_42_0
 + xp_38_0 + xp_32_1 + xp_24_1 + xp_12_0 + xp_1_0 <= 36778.2691092862
 r_26: + xp_128_1 + xp_121_0 + xp_112_0 + xp_108_1 + xp_107_0 + xp_81_0
 + xp_79_2 + xp_79_1 + xp_79_0 + xp_78_2 + xp_64_0 + xp_60_1 + xp_60_0
 + xp_47_0 + xp_40_1 + xp_37_0 + xp_29_0 + xp_25_0 + xp_18_0 + xp_17_1
 + xp_17_0 + xp_4_0 <= 35760.391198044
 r_27: + xp_131_1 + xp_127_1 + xp_125_0 + xp_120_1 + xp_116_0 + xp_115_0
 + xp_108_0 + xp_98_1 + xp_86_1 + xp_85_1 + xp_77_1 + xp_72_0 + xp_67_0
 + xp_65_0 + xp_58_1 + xp_57_0 + xp_52_0 + xp_50_0 + xp_48_1 + xp_42_1
 + xp_32_2 + xp_28_1 + xp_23_0 + xp_19_1 + xp_14_0 + xp_11_0
 <= 35760.391198044
 r_28: + xp_126_1 + xp_126_0 + xp_120_0 + xp_116_1 + xp_115_1 + xp_109_0
 + xp_99_0 + xp_98_0 + xp_96_0 + xp_92_0 + xp_90_2 + xp_90_1 + xp_86_0
 + xp_85_0 + xp_75_0 + xp_58_0 + xp_54_0 + xp_48_0 + xp_32_0 + xp_28_0
 + xp_26_0 + xp_24_0 + xp_19_0 + xp_12_1 + xp_11_1 <= 35760.391198044
 r_29: + xp_129_1 + xp_129_0 + xp_95_0 + xp_93_0 + xp_87_0 + xp_71_0
 + xp_62_0 + xp_49_0 + xp_45_0 + xp_10_0 + xp_9_1 + xp_9_0 + xp_1_1
 + xp_1_0 <= 35760.391198044
 r_30: + xp_125_0 + xp_121_0 + xp_102_0 + xp_99_0 + xp_96_0 + xp_92_0
 + xp_57_0 + xp_37_0 + xp_26_0 + xp_23_0 + xp_11_1 + xp_11_0
 <= 35760.391198044

Bounds
 0 <= xp_0_0 <= 225.07251201356
 0 <= xp_1_0 <= 139.318627548058
 0 <= xp_1_1 <= 34.8296568870145
 0 <= xp_2_0 <= 109.707132252419
 0 <= xp_3_0 <= 139.117445414415
 0 <= xp_3_1 <= 34.7793613536037
 0 <= xp_4_0 <= 752.484049243099
 0 <= xp_5_0 <= 1033.3846033427
 0 <= xp_6_0 <= 1709.23083355102
 0 <= xp_7_0 <= 608.827431938355
 0 <= xp_8_0 <= 1440.0868603862
 0 <= xp_9_0 <= 61.9389493954634
 0 <= xp_9_1 <= 41.2926329303089
 0 <= xp_10_0 <= 52.3073547472854
 0 <= xp_11_0 <= 31.6861860488363
 0 <= xp_11_1 <= 7.92154651220908
 0 <= xp_12_0 <= 1577.41881436453
 0 <= xp_12_1 <= 394.354703591132
 0 <= xp_13_0 <= 240.349780287106
 0 <= xp_14_0 <= 83.9180974960054
 0 <= xp_14_1 <= 125.877146244008
 0 <= xp_15_0 <= 483.717292578862
 0 <= xp_16_0 <= 2519.11466029925
 0 <= xp_17_0 <= 226.681969082707
 0 <= xp_17_1 <= 56.6704922706767
 0 <= xp_18_0 <= 136.979885244454
 0 <= xp_18_1 <= 205.46982786668
 0 <= xp_19_0 <= 201.961714411273
 0 <= xp_19_1 <= 807.846857645094
 0 <= xp_20_0 <= 122.343885021896
 0 <= xp_21_0 <= 261.851120820245
 0 <= xp_22_0 <= 1175.34374639483
 0 <= xp_23_0 <= 49.6039698264521
 0 <= xp_24_0 <= 129.988806100345
 0 <= xp_24_1 <= 194.983209150518
 0 <= xp_25_0 <= 552.182087434384
 0 <= xp_26_0 <= 14.6485741059104
 0 <= xp_27_0 <= 322.394369163557
 0 <= xp_28_0 <= 127.373438362981
 0 <= xp_28_1 <= 509.493753451924
 0 <= xp_29_0 <= 2335.59883276641
 0 <= xp_30_0 <= 139.972469482399
 0 <= xp_30_1 <= 34.9931173705998
 0 <= xp_31_0 <= 181.881222696991
 0 <= xp_32_0 <= 1288.83561753642
 0 <= xp_32_1 <= 429.611872512139
 0 <= xp_32_2 <= 429.611872512139
 0 <= xp_33_0 <= 7690.62714443651
 0 <= xp_34_0 <= 292.493674550806
 0 <= xp_34_1 <= 194.995783033871
 0 <= xp_35_0 <= 249.088629217241
 0 <= xp_36_0 <= 304.350846552414
 0 <= xp_37_0 <= 348.170830036618
 0 <= xp_38_0 <= 319.502375992433
 0 <= xp_39_0 <= 1501.44741114744
 0 <= xp_40_0 <= 648.259130132463
 0 <= xp_40_1 <= 162.064782533116
 0 <= xp_41_0 <= 76.2606025342033
 0 <= xp_42_0 <= 346.737407334409
 0 <= xp_42_1 <= 86.6843518336022
 0 <= xp_43_0 <= 469.571673807061
 0 <= xp_44_0 <= 437.63401009117
 0 <= xp_45_0 <= 40.6136432292624
 0 <= xp_46_0 <= 1532.19055594482
 0 <= xp_47_0 <= 838.803758459473
 0 <= xp_48_0 <= 2218.98863855335
 0 <= xp_48_1 <= 554.747159638337
 0 <= xp_49_0 <= 84.0564102128853
 0 <= xp_50_0 <= 598.818620789596
 0 <= xp_50_1 <= 149.704655197399
 0 <= xp_51_0 <= 677.166487960349
 0 <= xp_52_0 <= 632.151985557637
 0 <= xp_53_0 <= 181.252528529355
 0 <= xp_54_0 <= 3524.89958968275
 0 <= xp_55_0 <= 1131.08367699328
 0 <= xp_56_0 <= 91.4121319742223
 0 <= xp_57_0 <= 196.655535636429
 0 <= xp_58_0 <= 2603.39740041249
 0 <= xp_58_1 <= 1735.59826694166
 0 <= xp_59_0 <= 10158.5032300735
 0 <= xp_60_0 <= 258.77051939883
 0 <= xp_60_1 <= 388.155779098245
 0 <= xp_61_0 <= 1385.78025818583
 0 <= xp_61_1 <= 923.853505457222
 0 <= xp_62_0 <= 125.23587819302
 0 <= xp_63_0 <= 100.641362355113
 0 <= xp_63_1 <= 25.1603405887784
 0 <= xp_64_0 <= 949.013846046001
 0 <= xp_65_0 <= 498.554474935064
 0 <= xp_66_0 <= 1603.35873572118
 0 <= xp_67_0 <= 386.143957761811
 0 <= xp_68_0 <= 281.227475066775
 0 <= xp_68_1 <= 1124.9099002671
 0 <= xp_69_0 <= 1640.20021394462
 0 <= xp_70_0 <= 602.854837345816
 0 <= xp_71_0 <= 67.647492437595
 0 <= xp_72_0 <= 571.734476047852
 0 <= xp_73_0 <= 880.926267691061
 0 <= xp_74_0 <= 909.783329985537
 0 <= xp_75_0 <= 1683.58011151148
 0 <= xp_76_0 <= 1643.59516244986
 0 <= xp_77_0 <= 436.867003206654
 0 <= xp_77_1 <= 109.216750801664
 0 <= xp_78_0 <= 5343.51063451902
 0 <= xp_78_1 <= 16030.5319035571
 0 <= xp_78_2 <= 5343.51063451902
 0 <= xp_79_0 <= 610.260854640564
 0 <= xp_79_1 <= 203.420284880188
 0 <= xp_79_2 <= 203.420284880188
 0 <= xp_80_0 <= 172.211906398755
 0 <= xp_80_1 <= 43.0529765996887
 0 <= xp_81_0 <= 249.088629217241
 0 <= xp_82_0 <= 209.858113156777
 0 <= xp_83_0 <= 481.076777074793
 0 <= xp_84_0 <= 849.805906393096
 0 <= xp_85_0 <= 312.184375881154
 0 <= xp_85_1 <= 78.0460939702885
 0 <= xp_86_0 <= 130.969569001857
 0 <= xp_86_1 <= 32.7423922504642
 0 <= xp_87_0 <= 134.917768374609
 0 <= xp_88_0 <= 406.073562875861
 0 <= xp_89_0 <= 2120.83690510207
 0 <= xp_90_0 <= 12435.8095396167
 0 <= xp_90_1 <= 4145.2698465389
 0 <= xp_90_2 <= 4145.2698465389
 0 <= xp_91_0 <= 1559.37529175339
 0 <= xp_91_1 <= 519.791763917796
 0 <= xp_91_2 <= 519.791763917796
 0 <= xp_92_0 <= 63.8753274317812
 0 <= xp_93_0 <= 124.607184025384
 0 <= xp_94_0 <= 226.455639182358
 0 <= xp_95_0 <= 58.5942964236418
 0 <= xp_96_0 <= 110.272957003292
 0 <= xp_97_0 <= 503.96124477673
 0 <= xp_98_0 <= 109.342489635191
 0 <= xp_98_1 <= 27.3356224087977
 0 <= xp_99_0 <= 15.6544847741275
 0 <= xp_100_0 <= 480.888168824502
 0 <= xp_101_0 <= 238.903783701544
 0 <= xp_102_0 <= 71.6711351104631
 0 <= xp_103_0 <= 1376.588749455
 0 <= xp_104_0 <= 126.11605002771
 0 <= xp_105_0 <= 1386.27063963659
 0 <= xp_106_0 <= 39.6077325610454
 0 <= xp_107_0 <= 430.026810662779
 0 <= xp_108_0 <= 324.733111467162
 0 <= xp_108_1 <= 324.733111467162
 0 <= xp_108_2 <= 162.366555733581
 0 <= xp_109_0 <= 554.583699154752
 0 <= xp_109_1 <= 369.722466103168
 0 <= xp_110_0 <= 127.373438362981
 0 <= xp_111_0 <= 2796.68313531039
 0 <= xp_112_0 <= 4476.11386531548
 0 <= xp_113_0 <= 406.76512646026
 0 <= xp_114_0 <= 2292.72189053366
 0 <= xp_115_0 <= 168.99299226046
 0 <= xp_115_1 <= 42.2482480651151
 0 <= xp_116_0 <= 122.167850654958
 0 <= xp_116_1 <= 30.5419626637395
 0 <= xp_117_0 <= 1858.10561244714
 0 <= xp_118_0 <= 3016.47461631581
 0 <= xp_119_0 <= 60.0402930092038
 0 <= xp_120_0 <= 1659.65201149127
 0 <= xp_120_1 <= 414.913002872818
 0 <= xp_121_0 <= 72.2369598613352
 0 <= xp_122_0 <= 2175.09321176903
 0 <= xp_123_0 <= 491.324492007254
 0 <= xp_124_0 <= 131.648558702903
 0 <= xp_125_0 <= 26.0908079568791
 0 <= xp_126_0 <= 4853.40580919698
 0 <= xp_126_1 <= 9706.81161839395
 0 <= xp_126_2 <= 4853.40580919698
 0 <= xp_126_3 <= 4853.40580919698
 0 <= xp_127_0 <= 330.932035960049
 0 <= xp_127_1 <= 220.621357306699
 0 <= xp_128_0 <= 310.675509878829
 0 <= xp_128_1 <= 77.6688774697071
 0 <= xp_129_0 <= 18.7350861955421
 0 <= xp_129_1 <= 28.1026292933132
 0 <= xp_130_0 <= 385.95534951152
 0 <= xp_131_0 <= 440.475707728883
 0 <= xp_131_1 <= 293.650471819255

End
